
(set-logic BV)

(define-fun shr1 ((x (BitVec 64))) (BitVec 64) (bvlshr x #x0000000000000001))
(define-fun shr4 ((x (BitVec 64))) (BitVec 64) (bvlshr x #x0000000000000004))
(define-fun shr16 ((x (BitVec 64))) (BitVec 64) (bvlshr x #x0000000000000010))
(define-fun shl1 ((x (BitVec 64))) (BitVec 64) (bvshl x #x0000000000000001))
(define-fun if0 ((x (BitVec 64)) (y (BitVec 64)) (z (BitVec 64))) (BitVec 64) (ite (= x #x0000000000000001) y z))
(define-fun func24  ((A (BitVec 64)) (B (BitVec 64)) (C (BitVec 64)) (D (BitVec 64)) ) (BitVec 64) (bvand (bvlshr (bvlshr C  D ) B ) A ))
(define-fun func25  ((A (BitVec 64)) (B (BitVec 64)) (C (BitVec 64)) ) (BitVec 64) (bvand (bvlshr (bvlshr B  C ) A ) #x0000000000000004 ))
(define-fun func26  ((A (BitVec 64)) (B (BitVec 64)) (C (BitVec 64)) ) (BitVec 64) (bvand (bvlshr (bvlshr B  C ) #x0000000000000004 ) A ))
(define-fun func27  ((A (BitVec 64)) (B (BitVec 64)) (C (BitVec 64)) ) (BitVec 64) (bvand (bvlshr B  C ) A ))
(define-fun func28  ((A (BitVec 64)) (B (BitVec 64)) ) (BitVec 64) (bvand (bvlshr B  #x0000000000000010 ) A ))
(define-fun func29  ((A (BitVec 64)) (B (BitVec 64)) ) (BitVec 64) (bvand (bvlshr B  #x0000000000000001 ) A ))
(define-fun func30  ((A (BitVec 64)) (B (BitVec 64)) ) (BitVec 64) (bvand (bvlshr B  #x0000000000000004 ) A ))
(define-fun func31  ((A (BitVec 64)) (B (BitVec 64)) ) (BitVec 64) (bvand (bvlshr A  B ) #x0000000000000001 ))
(define-fun func32  ((A (BitVec 64)) ) (BitVec 64) (bvand A  #x0000000000000001 ))
(define-fun func33  ((A (BitVec 64)) (B (BitVec 64)) (C (BitVec 64)) (D (BitVec 64)) ) (BitVec 64) (bvlshr (bvlshr (bvlshr C  D ) B ) A ))
(define-fun func34  ((A (BitVec 64)) (B (BitVec 64)) (C (BitVec 64)) ) (BitVec 64) (bvlshr (bvlshr (bvlshr C  #x0000000000000010 ) B ) A ))
(define-fun func35  ((A (BitVec 64)) (B (BitVec 64)) (C (BitVec 64)) ) (BitVec 64) (bvlshr (bvlshr B  C ) A ))
(define-fun func36  ((A (BitVec 64)) (B (BitVec 64)) ) (BitVec 64) (bvlshr (bvlshr B  #x0000000000000010 ) A ))
(define-fun func37  ((A (BitVec 64)) (B (BitVec 64)) ) (BitVec 64) (bvlshr (bvlshr B  #x0000000000000004 ) A ))
(define-fun func38  ((A (BitVec 64)) (B (BitVec 64)) ) (BitVec 64) (bvlshr (bvlshr B  #x0000000000000001 ) A ))
(define-fun func39  ((A (BitVec 64)) (B (BitVec 64)) ) (BitVec 64) (bvlshr (bvlshr A  B ) #x0000000000000001 ))
(define-fun func40  ((A (BitVec 64)) (B (BitVec 64)) ) (BitVec 64) (bvlshr (bvlshr A  B ) #x0000000000000004 ))
(define-fun func41  ((A (BitVec 64)) (B (BitVec 64)) ) (BitVec 64) (bvlshr A  B ))
(define-fun func42  ((A (BitVec 64)) (B (BitVec 64)) (C (BitVec 64)) ) (BitVec 64) (bvlshr (bvshl B  C ) A ))
(define-fun func43  ((A (BitVec 64)) (B (BitVec 64)) ) (BitVec 64) (bvlshr (bvshl B  #x0000000000000001 ) A ))
(define-fun func44  ((A (BitVec 64)) (B (BitVec 64)) ) (BitVec 64) (bvlshr (bvnot B ) A ))
(define-fun func45  ((A (BitVec 64)) ) (BitVec 64) (bvlshr (bvnot A ) #x0000000000000010 ))
(define-fun func46  ((A (BitVec 64)) (B (BitVec 64)) (C (BitVec 64)) ) (BitVec 64) (bvlshr (bvadd B  C ) A ))
(define-fun func47  ((A (BitVec 64)) (B (BitVec 64)) (C (BitVec 64)) ) (BitVec 64) (bvshl (bvlshr B  C ) A ))
(define-fun func48  ((A (BitVec 64)) (B (BitVec 64)) ) (BitVec 64) (bvshl (bvlshr B  #x0000000000000001 ) A ))
(define-fun func49  ((A (BitVec 64)) (B (BitVec 64)) ) (BitVec 64) (bvshl (bvlshr A  B ) #x0000000000000001 ))
(define-fun func51  ((A (BitVec 64)) (B (BitVec 64)) ) (BitVec 64) (bvshl (bvnot B ) A ))
(define-fun func52  ((A (BitVec 64)) ) (BitVec 64) (bvshl (bvnot A ) #x0000000000000001 ))
(define-fun func53  ((A (BitVec 64)) ) (BitVec 64) (bvnot (bvshl A  #x0000000000000001 )))
(define-fun func55  ((A (BitVec 64)) (B (BitVec 64)) (C (BitVec 64)) ) (BitVec 64) (bvadd (bvlshr B  C ) A ))
(define-fun func56  ((A (BitVec 64)) ) (BitVec 64) (bvadd A  #x0000000000000001 ))
(define-fun func57  ((A (BitVec 64)) (B (BitVec 64)) (C (BitVec 64)) ) (BitVec 64) (bvadd (bvshl B  C ) A ))
(define-fun func58  ((A (BitVec 64)) (B (BitVec 64)) ) (BitVec 64) (bvadd (bvshl B  #x0000000000000001 ) A ))
(define-fun func59  ((A (BitVec 64)) (B (BitVec 64)) (C (BitVec 64)) ) (BitVec 64) (bvor (bvlshr B  C ) A ))
(define-fun func60  ((A (BitVec 64)) ) (BitVec 64) (bvor A  #x0000000000000001 ))
(synth-fun f ( (x (BitVec 64))) (BitVec 64)
(
(Start (BitVec 64) (
   #x0000000000000000
   #x0000000000000001
   x
   (func27 Start Start Start)
   (func28 Start Start)
   (func29 Start Start)
   (func30 Start Start)
   (func31 Start Start)
   (func33 Start Start Start Start)
   (func34 Start Start Start)
   (func39 Start Start)
   (func43 Start Start)
   (func45 Start)
   (func46 Start Start Start)
   (func47 Start Start Start)
   (func52 Start)
   (func53 Start)
   (func57 Start Start Start)
   (func58 Start Start)
   (func60 Start)
   (bvnot Start)
   (bvand Start Start)
   (bvadd Start Start)
   (if0 Start Start Start)
))
))
(constraint (= (f #x4f1b632aa34396f0) #xb0e44db9f991c5cc))
(constraint (= (f #xf18f871ba02546c0) #x0e6f8754d8bf191a))
(constraint (= (f #x901b6db7f7859b4c) #x6fe4022c9ac26d2e))
(constraint (= (f #x6a5fa0ef88fbe878) #x959ff4b0d6148e8c))
(constraint (= (f #x7ea3bcd4255b98c0) #x815bc4881dd041e4))
(constraint (= (f #xc51cc8ea7f597f83) #x3ae271f8b7bc0123))
(constraint (= (f #x3362ceec0fbd4f17) #xcc9cfdb12156a12b))
(constraint (= (f #xf03553d9221dbefb) #x0fc9bbf18a091ee7))
(constraint (= (f #x71156b1d6e975aab) #x8eea23cd264b36bd))
(constraint (= (f #x30ca854246f52aa5) #xcf3549f333c88e65))
(constraint (= (f #xc38d3a598352adb4) #x871a74b306a55b68))
(constraint (= (f #x3244d7808828c18a) #x6489af0110518314))
(constraint (= (f #xaaf7f63200b412ae) #x55efec640168255c))
(constraint (= (f #x7e2cae958d9c8a94) #xfc595d2b1b391528))
(constraint (= (f #xbbf316aa72d207d6) #x77e62d54e5a40fac))
(constraint (= (f #x4ac2414a7884cca1) #x9ddccabdff1999d6))
(constraint (= (f #x63a9a66996f8054f) #xcf777cdf3fff0abe))
(constraint (= (f #x648366473f180ec9) #xcd96eccefff31dda))
(constraint (= (f #x24c5657cc5ae9c75) #x4d9aeeff9bfdfbee))
(constraint (= (f #x4d0653f012d0f4a1) #x9baceffe27fbffd6))
(constraint (= (f #xa864ce35eacc2777) #x55cd9deffdd9ceee))
(constraint (= (f #x70ab575ff74da658) #x8f5437f4b152625a))
(constraint (= (f #xecd5389c836e9036) #xd9aa713906dd206c))
(constraint (= (f #x8a80ebf6eefb6cd6) #x757e8988250da42e))
(constraint (= (f #xefd122579bad1d27) #x102dedd741fb472b))
(constraint (= (f #x4aeb37afb8648c2c) #x95d66f5f70c91858))
(constraint (= (f #xfcfefaa03b4715c3) #x03000860ca18aef5))
(constraint (= (f #xcf1d56042403a4cb) #x30e1dade85f83731))
(constraint (= (f #x4a78e8f3f3156771) #xb586cc9323f6a579))
(constraint (= (f #x4c023a9eafc943ce) #xb3fd795f15980c68))
(constraint (= (f #xb305132e1f633fd3) #x4cfa39cccd6ea0c9))
(check-synth)
